NAME          DCAP_2_4_3_300_SS14
ROWS
 N  OBJ
 L  CON1
 L  CON2
 L  CON3
 L  CON4
 L  CON5
 L  CON6
 L  CON7
 L  CON8
 L  CON9
 L  CON10
 L  CON11
 L  CON12
 E  CON13
 E  CON14
 E  CON15
 E  CON16
 E  CON17
 E  CON18
 E  CON19
 E  CON20
 E  CON21
 E  CON22
 E  CON23
 E  CON24
COLUMNS
    x[1,1]    OBJ       6.180167      CON1      1.000000    
    x[1,1]    CON7      -1.000000     CON8      -1.000000   
    x[1,1]    CON9      -1.000000   
    x[1,2]    OBJ       6.563535      CON2      1.000000    
    x[1,2]    CON8      -1.000000     CON9      -1.000000   
    x[1,3]    OBJ       7.443064      CON3      1.000000    
    x[1,3]    CON9      -1.000000   
    x[2,1]    OBJ       6.732585      CON4      1.000000    
    x[2,1]    CON10     -1.000000     CON11     -1.000000   
    x[2,1]    CON12     -1.000000   
    x[2,2]    OBJ       5.039546      CON5      1.000000    
    x[2,2]    CON11     -1.000000     CON12     -1.000000   
    x[2,3]    OBJ       6.054841      CON6      1.000000    
    x[2,3]    CON12     -1.000000   
    MARKER    'MARKER'                'INTORG'
    u[1,1]    OBJ       48.076654     CON1      -1.000000   
    u[1,2]    OBJ       20.066487     CON2      -1.000000   
    u[1,3]    OBJ       32.230043     CON3      -1.000000   
    u[2,1]    OBJ       49.996186     CON4      -1.000000   
    u[2,2]    OBJ       49.466655     CON5      -1.000000   
    u[2,3]    OBJ       27.484319     CON6      -1.000000   
    y[1,1,1]  OBJ       7.218947      CON7      0.748298    
    y[1,1,1]  CON13     1.000000    
    y[1,1,2]  OBJ       6.960299      CON8      0.997145    
    y[1,1,2]  CON14     1.000000    
    y[1,1,3]  OBJ       5.004355      CON9      1.295363    
    y[1,1,3]  CON15     1.000000    
    y[1,2,1]  OBJ       6.127989      CON7      1.416528    
    y[1,2,1]  CON16     1.000000    
    y[1,2,2]  OBJ       5.068629      CON8      1.210026    
    y[1,2,2]  CON17     1.000000    
    y[1,2,3]  OBJ       7.136947      CON9      1.271392    
    y[1,2,3]  CON18     1.000000    
    y[1,3,1]  OBJ       5.691373      CON7      1.463269    
    y[1,3,1]  CON19     1.000000    
    y[1,3,2]  OBJ       7.190673      CON8      1.127112    
    y[1,3,2]  CON20     1.000000    
    y[1,3,3]  OBJ       9.707466      CON9      0.917339    
    y[1,3,3]  CON21     1.000000    
    y[1,4,1]  OBJ       8.496053      CON7      1.342500    
    y[1,4,1]  CON22     1.000000    
    y[1,4,2]  OBJ       6.325351      CON8      0.550267    
    y[1,4,2]  CON23     1.000000    
    y[1,4,3]  OBJ       8.122049      CON9      0.777091    
    y[1,4,3]  CON24     1.000000    
    y[2,1,1]  OBJ       9.384787      CON10     0.748298    
    y[2,1,1]  CON13     1.000000    
    y[2,1,2]  OBJ       5.567666      CON11     0.997145    
    y[2,1,2]  CON14     1.000000    
    y[2,1,3]  OBJ       6.571073      CON12     1.295363    
    y[2,1,3]  CON15     1.000000    
    y[2,2,1]  OBJ       6.447686      CON10     1.416528    
    y[2,2,1]  CON16     1.000000    
    y[2,2,2]  OBJ       9.875924      CON11     1.210026    
    y[2,2,2]  CON17     1.000000    
    y[2,2,3]  OBJ       5.546893      CON12     1.271392    
    y[2,2,3]  CON18     1.000000    
    y[2,3,1]  OBJ       8.066016      CON10     1.463269    
    y[2,3,1]  CON19     1.000000    
    y[2,3,2]  OBJ       7.079151      CON11     1.127112    
    y[2,3,2]  CON20     1.000000    
    y[2,3,3]  OBJ       9.776537      CON12     0.917339    
    y[2,3,3]  CON21     1.000000    
    y[2,4,1]  OBJ       5.438729      CON10     1.342500    
    y[2,4,1]  CON22     1.000000    
    y[2,4,2]  OBJ       6.467404      CON11     0.550267    
    y[2,4,2]  CON23     1.000000    
    y[2,4,3]  OBJ       6.385920      CON12     0.777091    
    y[2,4,3]  CON24     1.000000    
    z[1,1]    OBJ       744.312621    CON13     1.000000    
    z[1,2]    OBJ       783.973980    CON14     1.000000    
    z[1,3]    OBJ       829.839981    CON15     1.000000    
    z[2,1]    OBJ       925.120877    CON16     1.000000    
    z[2,2]    OBJ       529.409439    CON17     1.000000    
    z[2,3]    OBJ       736.538028    CON18     1.000000    
    z[3,1]    OBJ       708.983532    CON19     1.000000    
    z[3,2]    OBJ       622.548523    CON20     1.000000    
    z[3,3]    OBJ       813.107576    CON21     1.000000    
    z[4,1]    OBJ       924.952138    CON22     1.000000    
    z[4,2]    OBJ       958.504912    CON23     1.000000    
    z[4,3]    OBJ       977.142860    CON24     1.000000    
    MARKER    'MARKER'                 'INTEND'
RHS
    RHS       CON1      -0.000000     CON2      -0.000000   
    RHS       CON3      -0.000000     CON4      -0.000000   
    RHS       CON5      -0.000000     CON6      -0.000000   
    RHS       CON7      -0.000000     CON8      -0.000000   
    RHS       CON9      -0.000000     CON10     -0.000000   
    RHS       CON11     -0.000000     CON12     -0.000000   
    RHS       CON13     1.000000      CON14     1.000000    
    RHS       CON15     1.000000      CON16     1.000000    
    RHS       CON17     1.000000      CON18     1.000000    
    RHS       CON19     1.000000      CON20     1.000000    
    RHS       CON21     1.000000      CON22     1.000000    
    RHS       CON23     1.000000      CON24     1.000000    
BOUNDS
 BV BOUND     u[1,1]  
 BV BOUND     u[1,2]  
 BV BOUND     u[1,3]  
 BV BOUND     u[2,1]  
 BV BOUND     u[2,2]  
 BV BOUND     u[2,3]  
 BV BOUND     y[1,1,1]
 BV BOUND     y[1,1,2]
 BV BOUND     y[1,1,3]
 BV BOUND     y[1,2,1]
 BV BOUND     y[1,2,2]
 BV BOUND     y[1,2,3]
 BV BOUND     y[1,3,1]
 BV BOUND     y[1,3,2]
 BV BOUND     y[1,3,3]
 BV BOUND     y[1,4,1]
 BV BOUND     y[1,4,2]
 BV BOUND     y[1,4,3]
 BV BOUND     y[2,1,1]
 BV BOUND     y[2,1,2]
 BV BOUND     y[2,1,3]
 BV BOUND     y[2,2,1]
 BV BOUND     y[2,2,2]
 BV BOUND     y[2,2,3]
 BV BOUND     y[2,3,1]
 BV BOUND     y[2,3,2]
 BV BOUND     y[2,3,3]
 BV BOUND     y[2,4,1]
 BV BOUND     y[2,4,2]
 BV BOUND     y[2,4,3]
 BV BOUND     z[1,1]  
 BV BOUND     z[1,2]  
 BV BOUND     z[1,3]  
 BV BOUND     z[2,1]  
 BV BOUND     z[2,2]  
 BV BOUND     z[2,3]  
 BV BOUND     z[3,1]  
 BV BOUND     z[3,2]  
 BV BOUND     z[3,3]  
 BV BOUND     z[4,1]  
 BV BOUND     z[4,2]  
 BV BOUND     z[4,3]  
ENDATA
